# Solution for model GasLib-40
# Objective value = 1.0543715873568203e+01
loadshed[innode_1] 0
loadshed[innode_2] 0
loadshed[innode_3] 0
loadshed[innode_4] 0
loadshed[innode_5] 0
loadshed[innode_6] 0
loadshed[innode_7] 0
loadshed[innode_8] 0
loadshed[source_1] -3.1673131343145777e-01
loadshed[source_2] 9.2056507726561931e-02
loadshed[source_3] 2.9136907698926551e-01
loadshed[sink_1] 0
loadshed[sink_2] 0
loadshed[sink_3] 0
loadshed[sink_4] 0
loadshed[sink_5] 0
loadshed[sink_6] 0
loadshed[sink_7] 0
loadshed[sink_8] 0
loadshed[sink_9] 0
loadshed[sink_10] 0
loadshed[sink_11] 0
loadshed[sink_12] 6.4471128908442510e-01
loadshed[sink_13] 0
loadshed[sink_14] 0
loadshed[sink_15] 0
loadshed[sink_16] 0
loadshed[sink_17] 0
loadshed[sink_18] 0
loadshed[sink_19] 0
loadshed[sink_20] 0
loadshed[sink_21] 0
loadshed[sink_22] 0
loadshed[sink_23] 0
loadshed[sink_24] 0
loadshed[sink_25] 0
loadshed[sink_26] 0
loadshed[sink_27] 0
loadshed[sink_28] 0
loadshed[sink_29] 0
flow[source_1,sink_3] 2.0816241909907734e+02
flow[innode_1,sink_16] 1.6354166666666970e+01
flow[innode_6,sink_13] 2.4515072059903673e+00
flow[sink_13,sink_14] -13.9026594606763
flow[sink_14,sink_10] -3.0256826127342968e+01
flow[sink_25,sink_26] 1.7156673913006961e+02
flow[sink_26,sink_9] 1.2182587742624663e+02
flow[sink_9,sink_18] 1.0547171075957996e+02
flow[sink_26,sink_4] 3.3386695037156315e+01
flow[sink_4,sink_20] -1.7188676336662823e+01
flow[sink_18,sink_6] 8.9117544092913292e+01
flow[sink_25,innode_8] -1.7545408576574098e+02
flow[sink_6,sink_7] 4.0055044092913249e+01
flow[sink_6,sink_22] 3.2708333333333641e+01
flow[sink_7,sink_24] 3.8518784126431804e+01
flow[sink_22,sink_1] 1.6354166666666970e+01
flow[sink_24,sink_21] 2.2164617459765132e+01
flow[sink_21,sink_12] 5.8104507930984655e+00
flow[sink_7,sink_5] -1.4817906700185262e+01
flow[sink_5,sink_17] -3.1172073366851805e+01
flow[sink_17,sink_4] -3.4221204707152474e+01
flow[sink_17,sink_8] -1.3305035326366060e+01
flow[sink_3,sink_23] 16.3541666666697
flow[sink_8,sink_20] -2.9659201993032728e+01
flow[sink_25,sink_20] 6.3202044996362247e+01
flow[sink_25,sink_15] -78.1203722333483
flow[sink_15,sink_29] -1.1082870556669923e+02
flow[sink_29,sink_28] 1.6354166666667879e+01
flow[sink_29,sink_2] 0
flow[sink_2,sink_15] -1.6354166666684250e+01
flow[sink_29,innode_7] -1.4353703890003345e+02
flow[innode_4,sink_19] 9.5673492794010372e+01
flow[sink_19,innode_3] 3.8707496343449954e+01
flow[innode_4,innode_5] 1.6354166666679703e+01
flow[sink_27,innode_5] -1.6354166666679703e+01
flow[sink_27,sink_19] 0
flow[sink_10,sink_11] 3.2708333333333641e+01
flow[sink_10,innode_2] -4.0611829783893320e+01
flow[sink_10,innode_3] -3.8707496343449954e+01
flow[innode_6,sink_25] -2.4515072059903673e+00
flow[sink_11,innode_1] 1.6354166666666970e+01
flow[sink_19,innode_2] 4.0611829783893320e+01
flow[source_3,innode_4] 1.1202765946069007e+02
flow[source_2,innode_7] 1.4353703890003345e+02
flow[sink_3,innode_8] 1.7545408576574098e+02
pressure[innode_1] 7.4839068785432843e+01
pressure[innode_2] 7.7137273029465590e+01
pressure[innode_3] 7.7051559661961491e+01
pressure[innode_4] 81.01325
pressure[innode_5] 8.1002000741808772e+01
pressure[innode_6] 7.3548299458406532e+01
pressure[innode_7] 81.01325
pressure[innode_8] 80.3174425538782
pressure[source_1] 81.01325
pressure[source_2] 81.01325
pressure[source_3] 81.01325
pressure[sink_1] 4.5876299358628692e+01
pressure[sink_2] 7.3873866636168259e+01
pressure[sink_3] 80.3174425538782
pressure[sink_4] 5.7220083961385889e+01
pressure[sink_5] 5.3590168210800442e+01
pressure[sink_6] 4.7977376969016063e+01
pressure[sink_7] 4.7427516690394945e+01
pressure[sink_8] 5.6414295906908563e+01
pressure[sink_9] 54.1733615891389
pressure[sink_10] 7.4990770093036389e+01
pressure[sink_11] 7.4839068785432843e+01
pressure[sink_12] 1.0132499999999998e+00
pressure[sink_13] 7.3534784708864819e+01
pressure[sink_14] 7.3559664702214434e+01
pressure[sink_15] 73.9272593859347
pressure[sink_16] 7.3817418950615163e+01
pressure[sink_17] 5.5912262358412974e+01
pressure[sink_18] 5.0357080734095426e+01
pressure[sink_19] 7.7137273029465590e+01
pressure[sink_20] 5.8481125180426439e+01
pressure[sink_21] 3.0809263993950471e+00
pressure[sink_22] 46.9400685009837
pressure[sink_23] 8.0152724542218408e+01
pressure[sink_24] 3.3263789443763105e+00
pressure[sink_25] 7.3548299458406532e+01
pressure[sink_26] 6.1464954777034137e+01
pressure[sink_27] 8.0866291377726043e+01
pressure[sink_28] 7.6878914241510785e+01
pressure[sink_29] 7.7174196515127960e+01
interdiction[source_1,sink_3] 0
interdiction[innode_1,sink_16] 0
interdiction[innode_6,sink_13] 0
interdiction[sink_13,sink_14] 0
interdiction[sink_14,sink_10] 0
interdiction[sink_25,sink_26] 0
interdiction[sink_26,sink_9] 0
interdiction[sink_9,sink_18] 0
interdiction[sink_26,sink_4] 0
interdiction[sink_4,sink_20] 0
interdiction[sink_18,sink_6] 0
interdiction[sink_25,innode_8] 0
interdiction[sink_6,sink_7] 0
interdiction[sink_6,sink_22] 0
interdiction[sink_7,sink_24] 0
interdiction[sink_22,sink_1] 0
interdiction[sink_24,sink_21] 0
interdiction[sink_21,sink_12] 0
interdiction[sink_7,sink_5] 0
interdiction[sink_5,sink_17] 0
interdiction[sink_17,sink_4] 0
interdiction[sink_17,sink_8] 0
interdiction[sink_3,sink_23] 0
interdiction[sink_8,sink_20] 0
interdiction[sink_25,sink_20] 0
interdiction[sink_25,sink_15] 0
interdiction[sink_15,sink_29] 0
interdiction[sink_29,sink_28] 0
interdiction[sink_29,sink_2] 1
interdiction[sink_2,sink_15] 0
interdiction[sink_29,innode_7] 0
interdiction[innode_4,sink_19] 0
interdiction[sink_19,innode_3] 0
interdiction[innode_4,innode_5] 0
interdiction[sink_27,innode_5] 0
interdiction[sink_27,sink_19] 1
interdiction[sink_10,sink_11] 0
interdiction[sink_10,innode_2] 0
interdiction[sink_10,innode_3] 0
interdiction[innode_6,sink_25] 0
interdiction[sink_11,innode_1] 0
interdiction[sink_19,innode_2] 0
interdiction[source_3,innode_4] 0
interdiction[source_2,innode_7] 0
interdiction[sink_3,innode_8] 0
WCcheckFlow[source_1,sink_3] 39
WCcheckFlow[innode_1,sink_16] 1
WCcheckFlow[innode_6,sink_13] 13
WCcheckFlow[sink_13,sink_14] 12
WCcheckFlow[sink_14,sink_10] 11
WCcheckFlow[sink_25,sink_26] 15
WCcheckFlow[sink_26,sink_9] 12
WCcheckFlow[sink_9,sink_18] 11
WCcheckFlow[sink_26,sink_4] 2
WCcheckFlow[sink_4,sink_20] 1
WCcheckFlow[sink_18,sink_6] 10
WCcheckFlow[sink_25,innode_8] -36
WCcheckFlow[sink_6,sink_7] 7
WCcheckFlow[sink_6,sink_22] 2
WCcheckFlow[sink_7,sink_24] 3
WCcheckFlow[sink_22,sink_1] 1
WCcheckFlow[sink_24,sink_21] 2
WCcheckFlow[sink_21,sink_12] 1
WCcheckFlow[sink_7,sink_5] 3
WCcheckFlow[sink_5,sink_17] 2
WCcheckFlow[sink_17,sink_4] 0
WCcheckFlow[sink_17,sink_8] 1
WCcheckFlow[sink_3,sink_23] 1
WCcheckFlow[sink_8,sink_20] 0
WCcheckFlow[sink_25,sink_20] 0
WCcheckFlow[sink_25,sink_15] 6
WCcheckFlow[sink_15,sink_29] 4
WCcheckFlow[sink_29,sink_28] 1
WCcheckFlow[sink_29,sink_2] 0
WCcheckFlow[sink_2,sink_15] -1
WCcheckFlow[sink_29,innode_7] 2
WCcheckFlow[innode_4,sink_19] -4
WCcheckFlow[sink_19,innode_3] -5
WCcheckFlow[innode_4,innode_5] 2
WCcheckFlow[sink_27,innode_5] -1
WCcheckFlow[sink_27,sink_19] 0
WCcheckFlow[sink_10,sink_11] 3
WCcheckFlow[sink_10,innode_2] 1
WCcheckFlow[sink_10,innode_3] 6
WCcheckFlow[innode_6,sink_25] -14
WCcheckFlow[sink_11,innode_1] 2
WCcheckFlow[sink_19,innode_2] 0
WCcheckFlow[source_3,innode_4] -1
WCcheckFlow[source_2,innode_7] -1
WCcheckFlow[sink_3,innode_8] 37
